
  32    4
  10   10   10   10

   0   0   0   0   0   5 2 4 8 9 12 
   7   1   1   1   0   2 21 3 
   6   3   3   1   0   2 11 5 
   5   1   3   3   0   3 21 11 6 
   8   7   5   5   0   3 31 13 7 
  10   5   2   2   0   5 31 30 29 14 13 
   9   3   0   2   1   2 20 10 
   5   3   5   4   0   4 30 29 18 14 
   9   3   6   0   3   2 29 11 
   3   6   4   5   0   3 29 18 14 
   8   4   0   5   5   6 28 27 24 18 17 15 
   7   0   5   4   4   6 29 21 20 18 17 15 
   7   3   5   6   0   6 28 27 24 20 18 15 
   5  10   0   2   1   6 28 27 26 25 23 16 
   5   7   6   0   2   3 26 25 22 
   1   0   3   4   7   2 22 19 
   2   0   3   3   4   2 30 22 
  10   4   0   5   4   1 23 
   8   3   9   0   2   1 24 
   6   3   0   5   8   1 23 
   6   0   2   2   4   1 30 
   4   0   5   4   6   1 32
  10   0   8   6   8   1 32
   5   3   0   5   2   1 32
   6   6   4   6   0   1 32
   7   4   2   6   0   1 32
   6   6   5   4   0   1 32
   1   3   1   0   3   1 32
   2   3   2   5   0   1 32
   2   2   0   5   5   1 32
   6   3   3   0   3   1 32
   0   0   0   0   0   0 
